results/res_prop_muc/res_Cimatti_mathsat_cores/QF_IDL/inf-bakery-mutex-4.smt.smt2.res
unsat
( c0
  c1
  c10
  c101
  c102
  c104
  c109
  c11
  c110
  c113
  c116
  c118
  c12
  c121
  c127
  c128
  c13
  c132
  c134
  c135
  c137
  c14
  c15
  c155
  c158
  c164
  c167
  c170
  c172
  c175
  c183
  c184
  c185
  c188
  c190
  c191
  c193
  c198
  c199
  c20
  c205
  c208
  c210
  c214
  c216
  c217
  c221
  c222
  c223
  c224
  c226
  c244
  c250
  c252
  c253
  c259
  c262
  c263
  c264
  c271
  c273
  c274
  c275
  c277
  c278
  c280
  c282
  c288
  c29
  c294
  c305
  c306
  c310
  c311
  c313
  c315
  c333
  c339
  c342
  c348
  c36
  c362
  c363
  c365
  c366
  c367
  c369
  c371
  c375
  c377
  c378
  c382
  c383
  c385
  c387
  c392
  c394
  c397
  c43
  c45
  c46
  c66
  c69
  c74
  c83
  c86
  c93
  c98
  c99 )
